(set-option :produce-assignments true)
(set-logic QF_UF)
(declare-const p Bool) 
(declare-const q Bool) 
(declare-const r Bool) 
(declare-const s Bool) 
(declare-const t Bool)
(assert
(and 
(or (not s) r) 
(or (not q) r) 
(or t r) 
(or s r) 
(or (not t) r)
(or (not s) (not p)) 
(or (not q) (not p))
(or t (not p)) 
(or s (not p)) 
(or (not t) (not p)) 
(or (not r) p s q (not t) (not s) t )
))
(check-sat)
(get-model)
(exit)